m = 5; % number of couriers
n = 6; % number of packages

l = [12, 6, 15, 10, 8]; % maximum carriable weight per courier
s = [9, 4, 7, 3, 8, 3]; % weight of each package

D = % distance matrix 
	 [| 6, 12, 3, 7, 6, 4, 9
	 | 10, 6, 9, 12, 7, 12, 6
	 | 10, 11, 4, 11, 4, 6, 5
	 | 7, 12, 10, 7, 6, 6, 8
	 | 12, 11, 10, 7, 10, 4, 9
	 | 9, 12, 4, 4, 12, 8, 7
	 | 11, 6, 11, 8, 11, 7, 8
	 |];